NAME : sample_25
COMMENT : Sample TSP instance with 25 cities
TYPE : TSP
DIMENSION : 25
EDGE_WEIGHT_TYPE : EUC_2D
NODE_COORD_SECTION
1 346 442
2 811 708
3 251 452
4 973 925
5 990 636
6 984 64
7 994 287
8 172 787
9 892 799
10 420 404
11 367 196
12 12 752
13 610 265
14 740 996
15 920 792
16 250 354
17 398 40
18 751 9
19 265 726
20 991 166
21 71 720
22 740 20
23 552 824
24 651 172
25 443 578
EOF
